sifdecoder -A pc64.lnx.gfo -st   PORTFL1

 Problem name: PORTFL1

 Double precision version will be formed

 The objective function uses 62 nonlinear groups
 
 There is 1 linear equality constraint
 
 There are 12 variables bounded from below and above 
 
 
 File successfully decoded
 CUTEST: tools (double precision version) compiled successfully
 CUTEst: ipopt (double precision version) compiled successfully

******************************************************************************
This program contains Ipopt, a library for large-scale nonlinear optimization.
 Ipopt is released as open source code under the Eclipse Public License (EPL).
         For more information visit http://projects.coin-or.org/Ipopt
******************************************************************************

This is Ipopt version trunk, running with linear solver ma57.

Number of nonzeros in equality constraint Jacobian...:       12
Number of nonzeros in inequality constraint Jacobian.:        0
Number of nonzeros in Lagrangian Hessian.............:       78

Total number of variables............................:       12
                     variables with only lower bounds:        0
                variables with lower and upper bounds:       12
                     variables with only upper bounds:        0
Total number of equality constraints.................:        1
Total number of inequality constraints...............:        0
        inequality constraints with only lower bounds:        0
   inequality constraints with lower and upper bounds:        0
        inequality constraints with only upper bounds:        0

iter    objective    inf_pr   inf_du lg(mu)  ||d||  lg(rg) alpha_du alpha_pr  ls
   0  2.5441809e-02 4.00e-10 2.10e-02  -1.0 0.00e+00    -  0.00e+00 0.00e+00   0
   1  2.5349962e-02 2.64e-16 8.33e-17  -1.7 1.58e-03    -  1.00e+00 1.00e+00f  1
   2  2.4990796e-02 8.33e-17 8.62e-03  -3.8 6.20e-03    -  9.60e-01 1.00e+00f  1
   3  2.2060968e-02 1.11e-16 3.35e-04  -3.8 2.24e-01    -  9.77e-01 1.00e+00f  1
   4  2.0986418e-02 5.55e-17 2.20e-03  -5.7 6.73e-02    -  6.96e-01 1.00e+00f  1
   5  2.0630217e-02 1.11e-16 2.28e-04  -5.7 4.18e-02    -  9.48e-01 1.00e+00f  1
   6  2.0513785e-02 1.11e-16 7.76e-18  -5.7 1.27e-02    -  1.00e+00 1.00e+00f  1
   7  2.0487813e-02 8.33e-17 7.20e-06  -8.6 4.76e-03    -  9.80e-01 1.00e+00f  1
   8  2.0486322e-02 8.33e-17 9.81e-18  -8.6 1.32e-03    -  1.00e+00 1.00e+00f  1
   9  2.0486290e-02 5.55e-17 9.36e-18  -8.6 1.30e-04    -  1.00e+00 1.00e+00f  1

Number of Iterations....: 9

                                   (scaled)                 (unscaled)
Objective...............:   2.0486289553529470e-02    2.0486289553529470e-02
Dual infeasibility......:   9.3554172774681120e-18    9.3554172774681120e-18
Constraint violation....:   5.5511151231257827e-17    5.5511151231257827e-17
Complementarity.........:   3.1974039202958852e-09    3.1974039202958852e-09
Overall NLP error.......:   3.1974039202958852e-09    3.1974039202958852e-09


Number of objective function evaluations             = 10
Number of objective gradient evaluations             = 10
Number of equality constraint evaluations            = 10
Number of inequality constraint evaluations          = 0
Number of equality constraint Jacobian evaluations   = 10
Number of inequality constraint Jacobian evaluations = 0
Number of Lagrangian Hessian evaluations             = 9
Total CPU secs in IPOPT (w/o function evaluations)   =      0.012
Total CPU secs in NLP function evaluations           =      0.003

EXIT: Optimal Solution Found.

************************ CUTEst statistics ************************


 Package used            :  IPOPT
 Problem                 :  PORTFL1   
 # variables             =              12
 # constraints           =               1
 # objective functions   =        0.2100000E+02
 # objective gradients   =        0.1100000E+02
 # objective Hessians    =        0.1000000E+02
 # Hessian-vector prdct  =        0.0000000E+00
 # constraints functions =        0.2200000E+02
 # constraints gradients =        0.1200000E+02
 # constraints Hessians  =        0.1000000E+02
 Exit code               =               0
 Final f                 =        2.0486289553529470D-02
 Bounds feasibility      =        0.0000000000000000D+00
 Set up time             =            0.01 seconds
 Solve time              =            0.07 seconds


******************************************************************

